# Test 3d: HMC large mass limit
# At very heavy quark mass (kappa=0.05), HMC should
# match pure gauge results since det(D) ~ constant
# Compare with quenched heatbath at same beta

-------------------------------
[Lattice]
-------------------------------
nX: 4
nY: 4
nZ: 4
nT: 4

-------------------------------
[Gauge Action]
-------------------------------
Beta: 5.6
Update Method: hmc
Metropolis Epsilon: 0.2
Start Type: hot

-------------------------------
[Monte Carlo]
-------------------------------
Thermalization Sweeps: 100
Number of Configurations: 5
Sweeps Between Measurements: 2
Overrelaxation Sweeps: 3
Configuration Save Frequency: 10
Save Binary Configs: off
Random Seed: 77777

-------------------------------
[Measurements]
-------------------------------
Measure Wilson Loops: off
Wilson Loop R Max: 2
Wilson Loop T Max: 2
Measure Polyakov: on
Measure Correlators: off
Verbose Output: off

-------------------------------
[Wilson Fermions]
-------------------------------
Kappa: 0.05
Wilson r: 1.0
CG Max Iterations: 500
CG Tolerance: 1.0e-8
Solver Type: bicgstab

-------------------------------
[HMC]
-------------------------------
MD Steps: 10
MD Step Size: 0.02
HMC Trajectories: 100
