-------------------------------
[Lattice]
-------------------------------
nX: 4
nY: 4
nZ: 4
nT: 4
-------------------------------
[Gauge Action]
-------------------------------
Beta: 5.6
Update Method: hmc
Start Type: cold
-------------------------------
[Monte Carlo]
-------------------------------
Thermalization Sweeps: 0
Number of Configurations: 0
Random Seed: 42
Verbose Output: on
-------------------------------
[Measurements]
-------------------------------
Measure Wilson Loops: off
Measure Polyakov: off
Measure Correlators: off
-------------------------------
[Wilson Fermions]
-------------------------------
Kappa: 0.12
Wilson r: 1.0
Clover Coefficient: 1.0
CG Max Iterations: 1000
CG Tolerance: 1.0e-12
Solver Type: bicgstab
-------------------------------
[HMC]
-------------------------------
MD Steps: 1
MD Step Size: 0.001
HMC Trajectories: 0
